Strategies:  

WARNING: for repeatability, setting FPU to use double precision
============================[ Problem Statistics ]=============================
|                                                                             |
|  Number of variables:           999                                         |
|  Number of clauses:            9072                                         |
|  Parse time:                   0.00 s                                       |
|  Eliminated clauses:           0.00 Mb                                      |
|  Simplification time:          0.00 s                                       |
|                                                                             |
============================[ Search Statistics ]==============================
| Conflicts |          ORIGINAL         |          LEARNT          | Progress |
|           |    Vars  Clauses Literals |    Limit  Clauses Lit/Cl |          |
===============================================================================
===============================================================================
restarts              : 1
conflicts             : 21             (5250 /sec)
decisions             : 81             (0.00 % random) (20250 /sec)
propagations          : 2508           (627000 /sec)
conflict literals     : 222            (17.78 % deleted)
Memory used           : 22.00 MB
CPU time              : 0.004 s

SATISFIABLE


Strategies: -b -p  

WARNING: for repeatability, setting FPU to use double precision
============================[ Problem Statistics ]=============================
|                                                                             |
|  Number of variables:           999                                         |
|  Number of clauses:          338580                                         |
|  Parse time:                   0.22 s                                       |
|  Eliminated clauses:           0.00 Mb                                      |
|  Simplification time:         22.60 s                                       |
|                                                                             |
============================[ Search Statistics ]==============================
| Conflicts |          ORIGINAL         |          LEARNT          | Progress |
|           |    Vars  Clauses Literals |    Limit  Clauses Lit/Cl |          |
===============================================================================
===============================================================================
restarts              : 1
conflicts             : 17             (1 /sec)
decisions             : 29             (0.00 % random) (1 /sec)
propagations          : 1587           (70 /sec)
conflict literals     : 97             (15.65 % deleted)
Memory used           : 90.00 MB
CPU time              : 22.82 s

SATISFIABLE


Strategies: -b -x  

WARNING: for repeatability, setting FPU to use double precision
============================[ Problem Statistics ]=============================
|                                                                             |
|  Number of variables:           999                                         |
|  Number of clauses:          302292                                         |
|  Parse time:                   0.22 s                                       |
|  Eliminated clauses:           0.00 Mb                                      |
|  Simplification time:          0.32 s                                       |
|                                                                             |
============================[ Search Statistics ]==============================
| Conflicts |          ORIGINAL         |          LEARNT          | Progress |
|           |    Vars  Clauses Literals |    Limit  Clauses Lit/Cl |          |
===============================================================================
===============================================================================
restarts              : 1
conflicts             : 3              (6 /sec)
decisions             : 22             (0.00 % random) (41 /sec)
propagations          : 931            (1737 /sec)
conflict literals     : 3              (0.00 % deleted)
Memory used           : 77.00 MB
CPU time              : 0.536 s

SATISFIABLE


Strategies: -b -x -p  

WARNING: for repeatability, setting FPU to use double precision
============================[ Problem Statistics ]=============================
|                                                                             |
|  Number of variables:           999                                         |
|  Number of clauses:          628884                                         |
|  Parse time:                   0.42 s                                       |
|  Eliminated clauses:           0.00 Mb                                      |
|  Simplification time:         22.49 s                                       |
|                                                                             |
============================[ Search Statistics ]==============================
| Conflicts |          ORIGINAL         |          LEARNT          | Progress |
|           |    Vars  Clauses Literals |    Limit  Clauses Lit/Cl |          |
===============================================================================
===============================================================================
restarts              : 1
conflicts             : 17             (1 /sec)
decisions             : 29             (0.00 % random) (1 /sec)
propagations          : 1587           (69 /sec)
conflict literals     : 97             (15.65 % deleted)
Memory used           : 142.00 MB
CPU time              : 22.912 s

SATISFIABLE


Strategies: -b -a  

WARNING: for repeatability, setting FPU to use double precision
============================[ Problem Statistics ]=============================
|                                                                             |
|  Number of variables:           999                                         |
|  Number of clauses:          956772                                         |
|  Parse time:                   0.80 s                                       |
|  Eliminated clauses:           0.00 Mb                                      |
|  Simplification time:          2.12 s                                       |
|                                                                             |
============================[ Search Statistics ]==============================
| Conflicts |          ORIGINAL         |          LEARNT          | Progress |
|           |    Vars  Clauses Literals |    Limit  Clauses Lit/Cl |          |
===============================================================================
===============================================================================
restarts              : 1
conflicts             : 3              (1 /sec)
decisions             : 22             (0.00 % random) (8 /sec)
propagations          : 931            (318 /sec)
conflict literals     : 3              (0.00 % deleted)
Memory used           : 287.00 MB
CPU time              : 2.928 s

SATISFIABLE


Strategies: -b  

WARNING: for repeatability, setting FPU to use double precision
============================[ Problem Statistics ]=============================
|                                                                             |
|  Number of variables:           999                                         |
|  Number of clauses:           11988                                         |
|  Parse time:                   0.00 s                                       |
|  Eliminated clauses:           0.00 Mb                                      |
|  Simplification time:          0.01 s                                       |
|                                                                             |
============================[ Search Statistics ]==============================
| Conflicts |          ORIGINAL         |          LEARNT          | Progress |
|           |    Vars  Clauses Literals |    Limit  Clauses Lit/Cl |          |
===============================================================================
===============================================================================
restarts              : 1
conflicts             : 3              (250 /sec)
decisions             : 22             (0.00 % random) (1833 /sec)
propagations          : 931            (77583 /sec)
conflict literals     : 3              (0.00 % deleted)
Memory used           : 23.00 MB
CPU time              : 0.012 s

SATISFIABLE


